min: c;

c = 2.76747191145808 * u1_t7_h4 + 3.3611924999809 * u1_t7_h5 + 4.3524724566648 * u1_t5_h6 + 4.3524724566648 * u1_t7_h6 + 3.73244539169483 * u1_t5_h7 + 3.73244539169483 * u1_t7_h7 + 3.73244539169483 * u1_t9_h7 + 4.98584124072826 * u1_t5_h8 + 4.98584124072826 * u1_t7_h8 + 4.98584124072826 * u1_t9_h8 + 4.98584124072826 * u1_t10_h8 + 4.96937860716815 * u1_t5_h9 + 4.96937860716815 * u1_t7_h9 + 4.96937860716815 * u1_t9_h9 + 4.96937860716815 * u1_t10_h9 + 5.78065640298759 * u1_t5_h10 + 5.78065640298759 * u1_t7_h10 + 5.78065640298759 * u1_t9_h10 + 5.78065640298759 * u1_t10_h10 + 4.02895342668424 * u1_t5_h11 + 4.02895342668424 * u1_t9_h11 + 4.02895342668424 * u1_t10_h11 + 6.1746601851145 * u1_t4_h12 + 6.1746601851145 * u1_t5_h12 + 6.1746601851145 * u1_t8_h12 + 6.1746601851145 * u1_t9_h12 + 6.1746601851145 * u1_t10_h12 + 4.06345088539609 * u1_t4_h13 + 4.06345088539609 * u1_t8_h13 + 4.06345088539609 * u1_t9_h13 + 4.06345088539609 * u1_t10_h13 + 5.88204301333634 * u1_t4_h14 + 5.88204301333634 * u1_t8_h14 + 5.88204301333634 * u1_t9_h14 + 5.88204301333634 * u1_t10_h14 + 6.50955342053143 * u1_t4_h15 + 6.50955342053143 * u1_t8_h15 + 6.23455879581818 * u1_t4_h16 + 6.23455879581818 * u1_t8_h16 + 6.36749647355515 * u1_t4_h17 + 6.36749647355515 * u1_t8_h17 + 6.4590681783966 * u1_t2_h18 + 6.4590681783966 * u1_t4_h18 + 6.4590681783966 * u1_t6_h18 + 6.4590681783966 * u1_t8_h18 + 5.15934275392619 * u1_t2_h19 + 5.15934275392619 * u1_t3_h19 + 5.15934275392619 * u1_t4_h19 + 5.15934275392619 * u1_t6_h19 + 5.90186708463117 * u1_t1_h20 + 5.90186708463117 * u1_t2_h20 + 5.90186708463117 * u1_t3_h20 + 5.90186708463117 * u1_t4_h20 + 5.90186708463117 * u1_t6_h20 + 5.71613145453629 * u1_t1_h21 + 5.71613145453629 * u1_t2_h21 + 5.71613145453629 * u1_t3_h21 + 6.04541410148484 * u1_t1_h22 + 6.04541410148484 * u1_t2_h22 + 5.73832398386535 * u1_t1_h23 + 5.73832398386535 * u1_t2_h23;
0 <= u1_t1_h20 <= 1;
0 <= u1_t1_h21 <= 1;
0 <= u1_t1_h22 <= 1;
0 <= u1_t1_h23 <= 1;
u1_t1_h20 + u1_t1_h21 + u1_t1_h22 + u1_t1_h23 = 1;
0 <= u1_t2_h18 <= 1;
0 <= u1_t2_h19 <= 1;
0 <= u1_t2_h20 <= 1;
0 <= u1_t2_h21 <= 1;
0 <= u1_t2_h22 <= 1;
0 <= u1_t2_h23 <= 1;
u1_t2_h18 + u1_t2_h19 + u1_t2_h20 + u1_t2_h21 + u1_t2_h22 + u1_t2_h23 = 2;
0 <= u1_t3_h19 <= 1;
0 <= u1_t3_h20 <= 1;
0 <= u1_t3_h21 <= 1;
u1_t3_h19 + u1_t3_h20 + u1_t3_h21 = 1;
0 <= u1_t4_h12 <= 1;
0 <= u1_t4_h13 <= 1;
0 <= u1_t4_h14 <= 1;
0 <= u1_t4_h15 <= 1;
0 <= u1_t4_h16 <= 1;
0 <= u1_t4_h17 <= 1;
0 <= u1_t4_h18 <= 1;
0 <= u1_t4_h19 <= 1;
0 <= u1_t4_h20 <= 1;
u1_t4_h12 + u1_t4_h13 + u1_t4_h14 + u1_t4_h15 + u1_t4_h16 + u1_t4_h17 + u1_t4_h18 + u1_t4_h19 + u1_t4_h20 = 3;
0 <= u1_t5_h6 <= 1;
0 <= u1_t5_h7 <= 1;
0 <= u1_t5_h8 <= 1;
0 <= u1_t5_h9 <= 1;
0 <= u1_t5_h10 <= 1;
0 <= u1_t5_h11 <= 1;
0 <= u1_t5_h12 <= 1;
u1_t5_h6 + u1_t5_h7 + u1_t5_h8 + u1_t5_h9 + u1_t5_h10 + u1_t5_h11 + u1_t5_h12 = 3;
0 <= u1_t6_h18 <= 1;
0 <= u1_t6_h19 <= 1;
0 <= u1_t6_h20 <= 1;
u1_t6_h18 + u1_t6_h19 + u1_t6_h20 = 2;
0 <= u1_t7_h4 <= 1;
0 <= u1_t7_h5 <= 1;
0 <= u1_t7_h6 <= 1;
0 <= u1_t7_h7 <= 1;
0 <= u1_t7_h8 <= 1;
0 <= u1_t7_h9 <= 1;
0 <= u1_t7_h10 <= 1;
u1_t7_h4 + u1_t7_h5 + u1_t7_h6 + u1_t7_h7 + u1_t7_h8 + u1_t7_h9 + u1_t7_h10 = 2;
0 <= u1_t8_h12 <= 1;
0 <= u1_t8_h13 <= 1;
0 <= u1_t8_h14 <= 1;
0 <= u1_t8_h15 <= 1;
0 <= u1_t8_h16 <= 1;
0 <= u1_t8_h17 <= 1;
0 <= u1_t8_h18 <= 1;
u1_t8_h12 + u1_t8_h13 + u1_t8_h14 + u1_t8_h15 + u1_t8_h16 + u1_t8_h17 + u1_t8_h18 = 2;
0 <= u1_t9_h7 <= 1;
0 <= u1_t9_h8 <= 1;
0 <= u1_t9_h9 <= 1;
0 <= u1_t9_h10 <= 1;
0 <= u1_t9_h11 <= 1;
0 <= u1_t9_h12 <= 1;
0 <= u1_t9_h13 <= 1;
0 <= u1_t9_h14 <= 1;
u1_t9_h7 + u1_t9_h8 + u1_t9_h9 + u1_t9_h10 + u1_t9_h11 + u1_t9_h12 + u1_t9_h13 + u1_t9_h14 = 3;
0 <= u1_t10_h8 <= 1;
0 <= u1_t10_h9 <= 1;
0 <= u1_t10_h10 <= 1;
0 <= u1_t10_h11 <= 1;
0 <= u1_t10_h12 <= 1;
0 <= u1_t10_h13 <= 1;
0 <= u1_t10_h14 <= 1;
u1_t10_h8 + u1_t10_h9 + u1_t10_h10 + u1_t10_h11 + u1_t10_h12 + u1_t10_h13 + u1_t10_h14 = 3;
